; DUP2 DUP2 GT ISZERO ISZERO => DUP1 DUP3 LT
(set-option :produce-proofs true)
; 
(set-info :status unknown)
(declare-fun storage_t ((_ BitVec 256) (_ BitVec 256) Int (_ BitVec 256)) (_ BitVec 256))
(declare-fun storage_s ((_ BitVec 256) (_ BitVec 256) Int (_ BitVec 256)) (_ BitVec 256))
(declare-fun exc_halt_t (Int) Bool)
(declare-fun exc_halt_s (Int) Bool)
(declare-fun sc_t (Int) (_ BitVec 6))
(declare-fun stack_t ((_ BitVec 256) (_ BitVec 256) Int (_ BitVec 6)) (_ BitVec 256))
(declare-fun stack_s ((_ BitVec 256) (_ BitVec 256) Int (_ BitVec 6)) (_ BitVec 256))
(declare-fun sc_s (Int) (_ BitVec 6))
(declare-fun used_gas_t ((_ BitVec 256) (_ BitVec 256) Int) Int)
(declare-fun used_gas_s ((_ BitVec 256) (_ BitVec 256) Int) Int)
(assert
 (exists ((x_0 (_ BitVec 256)) (x_1 (_ BitVec 256)) )(let (($x11622 (forall ((w (_ BitVec 256)) )(let ((?x2293 (storage_t x_0 x_1 3 w)))
 (let ((?x11538 (storage_s x_0 x_1 5 w)))
 (= ?x11538 ?x2293))))
 ))
 (let (($x3614 (exc_halt_t 3)))
 (let (($x11317 (exc_halt_s 5)))
 (let (($x3494 (= $x11317 $x3614)))
 (let (($x3075 (forall ((n (_ BitVec 6)) )(let ((?x11304 (sc_t 3)))
 (let (($x9851 (bvsle ?x11304 n)))
 (let ((?x8882 (stack_t x_0 x_1 3 n)))
 (let ((?x344 (stack_s x_0 x_1 5 n)))
 (let (($x9163 (= ?x344 ?x8882)))
 (or $x9163 $x9851)))))))
 ))
 (let ((?x11304 (sc_t 3)))
 (let ((?x4319 (sc_s 5)))
 (let (($x1839 (= ?x4319 ?x11304)))
 (let ((?x5631 (used_gas_t x_0 x_1 0)))
 (let ((?x3355 (used_gas_s x_0 x_1 0)))
 (let (($x1528 (= ?x3355 ?x5631)))
 (let (($x3746 (forall ((w (_ BitVec 256)) )(let ((?x2383 (storage_t x_0 x_1 0 w)))
 (let ((?x7155 (storage_s x_0 x_1 0 w)))
 (= ?x7155 ?x2383))))
 ))
 (let (($x56 (exc_halt_t 0)))
 (let (($x57 (exc_halt_s 0)))
 (let (($x58 (= $x57 $x56)))
 (let (($x6241 (forall ((n (_ BitVec 6)) )(let ((?x63 (sc_t 0)))
 (let (($x4174 (bvsle ?x63 n)))
 (let ((?x10116 (stack_t x_0 x_1 0 n)))
 (let ((?x894 (stack_s x_0 x_1 0 n)))
 (let (($x412 (= ?x894 ?x10116)))
 (or $x412 $x4174)))))))
 ))
 (let ((?x63 (sc_t 0)))
 (let ((?x72 (sc_s 0)))
 (let (($x73 (= ?x72 ?x63)))
 (let (($x2676 (= $x3614 (or (exc_halt_t 2) (not (bvsle (_ bv0 6) (bvadd (_ bv62 6) (sc_t 2))))))))
 (let (($x2522 (forall ((w (_ BitVec 256)) )(let ((?x2651 (storage_t x_0 x_1 2 w)))
 (let ((?x2293 (storage_t x_0 x_1 3 w)))
 (= ?x2293 ?x2651))))
 ))
 (let (($x2948 (forall ((n (_ BitVec 6)) )(let ((?x6158 (sc_t 2)))
 (let ((?x5872 (bvadd (_ bv62 6) ?x6158)))
 (let (($x10018 (bvsle ?x5872 n)))
 (or (= (stack_t x_0 x_1 3 n) (stack_t x_0 x_1 2 n)) $x10018)))))
 ))
 (let ((?x6158 (sc_t 2)))
 (let ((?x3122 (bvadd (_ bv63 6) ?x6158)))
 (let (($x1331 (= ?x11304 ?x3122)))
 (let (($x9280 (= (used_gas_t x_0 x_1 3) (+ 3 (used_gas_t x_0 x_1 2)))))
 (let ((?x7910 (stack_t x_0 x_1 2 ?x3122)))
 (let ((?x6431 (ite (bvule (stack_t x_0 x_1 2 (bvadd (_ bv62 6) ?x6158)) ?x7910) (_ bv0 256) (_ bv1 256))))
 (let (($x10144 (not (= ((_ extract 6 6) (bvadd (_ bv1 7) (concat (_ bv0 1) (sc_t 1)))) (_ bv0 1)))))
 (let (($x8377 (exc_halt_t 1)))
 (let (($x4201 (not (bvsle (_ bv0 6) (bvadd (_ bv61 6) (sc_t 1))))))
 (let (($x11434 (exc_halt_t 2)))
 (let (($x5110 (= $x11434 (or $x4201 $x8377 $x10144))))
 (let (($x646 (forall ((w (_ BitVec 256)) )(let ((?x1314 (storage_t x_0 x_1 1 w)))
 (let ((?x2651 (storage_t x_0 x_1 2 w)))
 (= ?x2651 ?x1314))))
 ))
 (let (($x6929 (forall ((n (_ BitVec 6)) )(let ((?x7154 (sc_t 1)))
 (let ((?x8848 (bvadd (_ bv61 6) ?x7154)))
 (let (($x6996 (bvsle ?x8848 n)))
 (or (= (stack_t x_0 x_1 2 n) (stack_t x_0 x_1 1 n)) $x6996)))))
 ))
 (let (($x10587 (= ?x6158 (bvadd (_ bv1 6) (sc_t 1)))))
 (let ((?x6073 (used_gas_t x_0 x_1 2)))
 (let ((?x7154 (sc_t 1)))
 (let ((?x8470 (bvadd (_ bv63 6) ?x7154)))
 (let ((?x524 (stack_t x_0 x_1 1 ?x8470)))
 (let (($x8129 (= (stack_t x_0 x_1 2 (bvadd (_ bv62 6) ?x7154)) (stack_t x_0 x_1 1 (bvadd (_ bv62 6) ?x7154)))))
 (let ((?x8848 (bvadd (_ bv61 6) ?x7154)))
 (let ((?x8017 (stack_t x_0 x_1 1 ?x8848)))
 (let (($x8081 (not (bvsle (_ bv0 6) (bvadd (_ bv63 6) ?x63)))))
 (let (($x1567 (not (= ((_ extract 6 6) (bvadd (_ bv1 7) (concat (_ bv0 1) ?x63))) (_ bv0 1)))))
 (let (($x9042 (forall ((w (_ BitVec 256)) )(let ((?x2383 (storage_t x_0 x_1 0 w)))
 (let ((?x1314 (storage_t x_0 x_1 1 w)))
 (= ?x1314 ?x2383))))
 ))
 (let (($x663 (forall ((n (_ BitVec 6)) )(let ((?x63 (sc_t 0)))
 (let ((?x5306 (bvadd (_ bv63 6) ?x63)))
 (let (($x2809 (bvsle ?x5306 n)))
 (or $x2809 (= (stack_t x_0 x_1 1 n) (stack_t x_0 x_1 0 n)))))))
 ))
 (let (($x3399 (= ?x7154 (bvadd (_ bv1 6) ?x63))))
 (let ((?x5306 (bvadd (_ bv63 6) ?x63)))
 (let ((?x3489 (stack_t x_0 x_1 0 ?x5306)))
 (let (($x3734 (= $x11317 (or (exc_halt_s 4) (not (bvsle (_ bv0 6) (bvadd (_ bv63 6) (sc_s 4))))))))
 (let (($x3869 (forall ((w (_ BitVec 256)) )(let ((?x9692 (storage_s x_0 x_1 4 w)))
 (let ((?x11538 (storage_s x_0 x_1 5 w)))
 (= ?x11538 ?x9692))))
 ))
 (let (($x8249 (forall ((n (_ BitVec 6)) )(let ((?x4305 (sc_s 4)))
 (let ((?x7956 (bvadd (_ bv63 6) ?x4305)))
 (let (($x4752 (bvsle ?x7956 n)))
 (or (= (stack_s x_0 x_1 5 n) (stack_s x_0 x_1 4 n)) $x4752)))))
 ))
 (let ((?x4305 (sc_s 4)))
 (let (($x5283 (= ?x4319 ?x4305)))
 (let (($x8163 (= (used_gas_s x_0 x_1 5) (+ 3 (used_gas_s x_0 x_1 4)))))
 (let (($x9949 (= (stack_s x_0 x_1 5 (bvadd (_ bv63 6) ?x4319)) (ite (= (stack_s x_0 x_1 4 (bvadd (_ bv63 6) ?x4305)) (_ bv0 256)) (_ bv1 256) (_ bv0 256)))))
 (let (($x7172 (exc_halt_s 4)))
 (let (($x523 (= $x7172 (or (exc_halt_s 3) (not (bvsle (_ bv0 6) (bvadd (_ bv63 6) (sc_s 3))))))))
 (let (($x2996 (forall ((w (_ BitVec 256)) )(let ((?x352 (storage_s x_0 x_1 3 w)))
 (let ((?x9692 (storage_s x_0 x_1 4 w)))
 (= ?x9692 ?x352))))
 ))
 (let (($x2188 (forall ((n (_ BitVec 6)) )(or (= (stack_s x_0 x_1 4 n) (stack_s x_0 x_1 3 n)) (bvsle (bvadd (_ bv63 6) (sc_s 3)) n)))
 ))
 (let ((?x275 (sc_s 3)))
 (let (($x7278 (= ?x4305 ?x275)))
 (let ((?x3692 (used_gas_s x_0 x_1 4)))
 (let ((?x7956 (bvadd (_ bv63 6) ?x4305)))
 (let ((?x5766 (stack_s x_0 x_1 4 ?x7956)))
 (let (($x10120 (= ?x5766 (ite (= (stack_s x_0 x_1 3 (bvadd (_ bv63 6) ?x275)) (_ bv0 256)) (_ bv1 256) (_ bv0 256)))))
 (let (($x292 (exc_halt_s 3)))
 (let (($x3850 (= $x292 (or (exc_halt_s 2) (not (bvsle (_ bv0 6) (bvadd (_ bv62 6) (sc_s 2))))))))
 (let (($x9783 (forall ((w (_ BitVec 256)) )(let ((?x8967 (storage_s x_0 x_1 2 w)))
 (let ((?x352 (storage_s x_0 x_1 3 w)))
 (= ?x352 ?x8967))))
 ))
 (let (($x2950 (forall ((n (_ BitVec 6)) )(let ((?x218 (sc_s 2)))
 (let ((?x4488 (bvadd (_ bv62 6) ?x218)))
 (let (($x9325 (bvsle ?x4488 n)))
 (or (= (stack_s x_0 x_1 3 n) (stack_s x_0 x_1 2 n)) $x9325)))))
 ))
 (let ((?x218 (sc_s 2)))
 (let ((?x8683 (bvadd (_ bv63 6) ?x218)))
 (let (($x3706 (= ?x275 ?x8683)))
 (let ((?x2048 (used_gas_s x_0 x_1 3)))
 (let ((?x3397 (stack_s x_0 x_1 2 ?x8683)))
 (let ((?x631 (ite (bvule ?x3397 (stack_s x_0 x_1 2 (bvadd (_ bv62 6) ?x218))) (_ bv0 256) (_ bv1 256))))
 (let ((?x5573 (bvadd (_ bv63 6) ?x275)))
 (let ((?x3178 (stack_s x_0 x_1 3 ?x5573)))
 (let (($x8478 (not (bvsle (_ bv0 6) (bvadd (_ bv62 6) (sc_s 1))))))
 (let (($x2006 (not (= ((_ extract 6 6) (bvadd (_ bv1 7) (concat (_ bv0 1) (sc_s 1)))) (_ bv0 1)))))
 (let (($x189 (exc_halt_s 1)))
 (let (($x247 (exc_halt_s 2)))
 (let (($x4787 (forall ((w (_ BitVec 256)) )(let ((?x916 (storage_s x_0 x_1 1 w)))
 (let ((?x8967 (storage_s x_0 x_1 2 w)))
 (= ?x8967 ?x916))))
 ))
 (let (($x10971 (forall ((n (_ BitVec 6)) )(let ((?x154 (sc_s 1)))
 (let ((?x6309 (bvadd (_ bv62 6) ?x154)))
 (let (($x4798 (bvsle ?x6309 n)))
 (or $x4798 (= (stack_s x_0 x_1 2 n) (stack_s x_0 x_1 1 n)))))))
 ))
 (let (($x7840 (= ?x218 (bvadd (_ bv1 6) (sc_s 1)))))
 (let ((?x9567 (used_gas_s x_0 x_1 2)))
 (let ((?x154 (sc_s 1)))
 (let ((?x5269 (bvadd (_ bv63 6) ?x154)))
 (let ((?x6749 (stack_s x_0 x_1 1 ?x5269)))
 (let ((?x6309 (bvadd (_ bv62 6) ?x154)))
 (let ((?x9883 (stack_s x_0 x_1 1 ?x6309)))
 (let (($x8181 (not (bvsle (_ bv0 6) (bvadd (_ bv62 6) ?x72)))))
 (let (($x8123 (not (= ((_ extract 6 6) (bvadd (_ bv1 7) (concat (_ bv0 1) ?x72))) (_ bv0 1)))))
 (let (($x9338 (= $x189 (or $x57 $x8123 $x8181))))
 (let (($x8582 (forall ((w (_ BitVec 256)) )(let ((?x7155 (storage_s x_0 x_1 0 w)))
 (let ((?x916 (storage_s x_0 x_1 1 w)))
 (= ?x916 ?x7155))))
 ))
 (let (($x1282 (forall ((n (_ BitVec 6)) )(let ((?x72 (sc_s 0)))
 (let ((?x5743 (bvadd (_ bv62 6) ?x72)))
 (let (($x6684 (bvsle ?x5743 n)))
 (or $x6684 (= (stack_s x_0 x_1 1 n) (stack_s x_0 x_1 0 n)))))))
 ))
 (let (($x6741 (= ?x154 (bvadd (_ bv1 6) ?x72))))
 (let (($x1806 (= (stack_s x_0 x_1 1 (bvadd (_ bv63 6) ?x72)) (stack_s x_0 x_1 0 (bvadd (_ bv63 6) ?x72)))))
 (let ((?x5743 (bvadd (_ bv62 6) ?x72)))
 (let ((?x6177 (stack_s x_0 x_1 0 ?x5743)))
 (let (($x5194 (forall ((w (_ BitVec 256)) )(let ((?x7155 (storage_s x_0 x_1 0 w)))
 (= ?x7155 (_ bv0 256))))
 ))
 (let (($x2836 (= ?x3355 0)))
 (let (($x3561 (not $x57)))
 (let (($x3727 (= (stack_s x_0 x_1 0 (_ bv1 6)) x_1)))
 (let (($x5654 (= (stack_s x_0 x_1 0 (_ bv0 6)) x_0)))
 (let (($x11128 (= ?x72 (_ bv2 6))))
 (and $x11128 $x5654 $x3727 $x3561 $x2836 $x5194 (= ?x6749 ?x6177) (= (stack_s x_0 x_1 1 ?x5743) ?x6177) $x1806 (= (used_gas_s x_0 x_1 1) (+ 3 ?x3355)) $x6741 $x1282 $x8582 $x9338 (= ?x3397 ?x9883) (= (stack_s x_0 x_1 2 ?x6309) ?x9883) (= (stack_s x_0 x_1 2 ?x5269) ?x6749) (= ?x9567 (+ 3 (used_gas_s x_0 x_1 1))) $x7840 $x10971 $x4787 (= $x247 (or $x189 $x2006 $x8478)) (= ?x3178 ?x631) (= ?x2048 (+ 3 ?x9567)) $x3706 $x2950 $x9783 $x3850 $x10120 (= ?x3692 (+ 3 ?x2048)) $x7278 $x2188 $x2996 $x523 $x9949 $x8163 $x5283 $x8249 $x3869 $x3734 (= ?x524 ?x3489) (= (stack_t x_0 x_1 1 ?x5306) ?x3489) (= (used_gas_t x_0 x_1 1) (+ 3 ?x5631)) $x3399 $x663 $x9042 (= $x8377 (or $x56 $x1567 $x8081)) (= ?x7910 ?x8017) (= (stack_t x_0 x_1 2 ?x8848) ?x8017) $x8129 (= (stack_t x_0 x_1 2 ?x8470) ?x524) (= ?x6073 (+ 3 (used_gas_t x_0 x_1 1))) $x10587 $x6929 $x646 $x5110 (= (stack_t x_0 x_1 3 (bvadd (_ bv63 6) ?x11304)) ?x6431) $x9280 $x1331 $x2948 $x2522 $x2676 $x73 $x6241 $x58 $x3746 $x1528 (not (and $x1839 $x3075 $x3494 $x11622)))))))))))))))))))))))))))))))))))))))))))))))))))))))))))))))))))))))))))))))))))))))))))))))))))))))))))))))
 )
(check-sat)
(get-proof)
